solution status: optimal solution found
objective value:                     196799.785714284
d11(0,0)                                            1 	(obj:0)
d11(1,1)                                            1 	(obj:0)
d11(1,2)                                            1 	(obj:0)
d11(2,4)                                            1 	(obj:0)
d11(2,5)                                            1 	(obj:0)
d11(2,6)                                            1 	(obj:0)
d11(2,7)                                            1 	(obj:0)
d11(2,8)                                            1 	(obj:0)
d11(2,9)                                            1 	(obj:0)
d11(2,10)                                           1 	(obj:0)
d11(2,11)                                           1 	(obj:0)
d11(2,12)                                           1 	(obj:0)
d11(3,13)                                           1 	(obj:0)
d11(3,14)                                           1 	(obj:0)
d11(3,16)                                           1 	(obj:0)
d11(3,17)                                           1 	(obj:0)
d11(3,19)                                           1 	(obj:0)
d11(3,20)                                           1 	(obj:0)
d11(3,22)                                           1 	(obj:0)
d11(3,23)                                           1 	(obj:0)
d11(3,25)                                           1 	(obj:0)
d11(3,26)                                           1 	(obj:0)
d11(3,28)                                           1 	(obj:0)
d11(3,29)                                           1 	(obj:0)
d11(3,31)                                           1 	(obj:0)
d11(3,32)                                           1 	(obj:0)
d11(3,34)                                           1 	(obj:0)
d11(3,35)                                           1 	(obj:0)
d11(3,37)                                           1 	(obj:0)
d11(3,38)                                           1 	(obj:0)
d12(1,3)                                            1 	(obj:0)
d12(3,15)                                           1 	(obj:0)
d12(3,18)                                           1 	(obj:0)
d12(3,21)                                           1 	(obj:0)
d12(3,24)                                           1 	(obj:0)
d12(3,30)                                           1 	(obj:0)
d12(3,33)                                           1 	(obj:0)
d12(3,36)                                           1 	(obj:0)
d12(3,39)                                           1 	(obj:0)
d21(3,13)                                           1 	(obj:0)
d21(3,14)                                           1 	(obj:0)
d21(3,15)                                           1 	(obj:0)
d21(3,16)                                           1 	(obj:0)
d21(3,17)                                           1 	(obj:0)
d21(3,19)                                           1 	(obj:0)
d21(3,22)                                           1 	(obj:0)
d21(3,23)                                           1 	(obj:0)
d21(3,25)                                           1 	(obj:0)
d21(3,31)                                           1 	(obj:0)
STE(1,1)                             12728.4646167447 	(obj:0)
STE(0,0)                                        15750 	(obj:0)
STE(1,2)                              13725.230620078 	(obj:0)
STE(1,3)                             14721.9966234113 	(obj:0)
STE(2,4)                             1866.93762660141 	(obj:0)
STE(2,5)                             2863.70362993474 	(obj:0)
STE(2,6)                             4081.15583326812 	(obj:0)
STE(2,7)                             2863.70362993474 	(obj:0)
STE(2,8)                             3860.46963326803 	(obj:0)
STE(2,9)                             5077.92183660141 	(obj:0)
STE(2,10)                            3860.46963326803 	(obj:0)
STE(2,11)                            4857.23563660132 	(obj:0)
STE(2,12)                             6074.6878399347 	(obj:0)
STE(3,13)                           -1415.29800999992 	(obj:0)
STE(3,14)                           -418.532006666627 	(obj:0)
STE(3,15)                            606.937626601393 	(obj:0)
STE(3,16)                           -418.532006666582 	(obj:0)
STE(3,17)                            578.233996666709 	(obj:0)
STE(3,18)                            1603.70362993474 	(obj:0)
STE(3,19)                            798.920196666796 	(obj:0)
STE(3,20)                            1795.68620000009 	(obj:0)
STE(3,21)                            2821.15583326812 	(obj:0)
STE(3,22)                           -418.532006666581 	(obj:0)
STE(3,23)                             578.23399666671 	(obj:0)
STE(3,24)                            1603.70362993474 	(obj:0)
STE(3,25)                            578.233996666709 	(obj:0)
STE(3,26)                                        1575 	(obj:0)
STE(3,27)                            2600.46963326803 	(obj:0)
STE(3,28)                            1795.68620000009 	(obj:0)
STE(3,29)                            2792.45220333338 	(obj:0)
STE(3,30)                             3817.9218366014 	(obj:0)
STE(3,31)                            578.233996666709 	(obj:0)
STE(3,32)                                        1575 	(obj:0)
STE(3,33)                            2600.46963326802 	(obj:0)
STE(3,34)                                        1575 	(obj:0)
STE(3,35)                            2571.76600333329 	(obj:0)
STE(3,36)                            3597.23563660132 	(obj:0)
STE(3,37)                            2792.45220333338 	(obj:0)
STE(3,38)                            3789.21820666667 	(obj:0)
STE(3,39)                            4814.68783993469 	(obj:0)
y1(3,23)                             922.922669941229 	(obj:0)
y1(3,25)                             1820.01207294119 	(obj:0)
y1(3,26)                             922.922669941229 	(obj:0)
y1(3,28)                             1820.01207294119 	(obj:0)
y1(3,29)                             922.922669941229 	(obj:0)
y1(3,31)                             1820.01207294119 	(obj:0)
y1(3,32)                             922.922669941229 	(obj:0)
y1(3,34)                             1820.01207294119 	(obj:0)
y1(3,35)                             922.922669941229 	(obj:0)
y1(3,37)                             1820.01207294119 	(obj:0)
y1(3,38)                             922.922669941229 	(obj:0)
BG(3)                                1028.25247314583 	(obj:10)
AVE(1)                               3199.95851117552 	(obj:0)
AVE(2)                               3265.15049132519 	(obj:0)
AVE(3)                               3291.35535332476 	(obj:0)
WG(1)                                3199.95851117552 	(obj:10)
WG(2)                                3265.15049132519 	(obj:10)
WG(3)                                3291.35535332476 	(obj:10)
BG(1)                                880.230715283404 	(obj:10)
BG(2)                                8015.03102717371 	(obj:10)
y1(1,1)                              1585.38184492976 	(obj:0)
y1(1,2)                              688.292441929798 	(obj:0)
y1(2,4)                              8641.37429112897 	(obj:0)
y1(2,5)                              7744.28488812897 	(obj:0)
y1(2,6)                              6648.57790512893 	(obj:0)
y1(2,7)                              8641.37429112893 	(obj:0)
y1(2,8)                              7744.28488812897 	(obj:0)
y1(2,9)                              6648.57790512893 	(obj:0)
y1(2,10)                             8641.37429112893 	(obj:0)
y1(2,11)                             7744.28488812897 	(obj:0)
y1(2,12)                             6648.57790512893 	(obj:0)
y1(3,13)                             1820.01207294119 	(obj:0)
y1(3,14)                             922.922669941229 	(obj:0)
y1(3,16)                             1820.01207294119 	(obj:0)
y1(3,17)                             922.922669941229 	(obj:0)
y1(3,19)                             1820.01207294119 	(obj:0)
y1(3,20)                             922.922669941229 	(obj:0)
y1(3,22)                             1820.01207294119 	(obj:0)
y2(1,3)                              244.206972011888 	(obj:0)
